
Model name: lp
               x10      x11       x1       x2       x3       x4       x5       x6       x7       x8       x9 
Minimize         6       10        1        5        3        7        2        0        4        0        2 
r_1              0        0        1        1        1        1        0        0        0        0        0 <=        4
r_2              1        1        0        0        0        0        1        1        1        1        1 <=        2
r_3              0        0        1        1        0        0        2        1        1        1        0  =        5
r_4              2        1        1        0        2        1        0        2        1        0        3  =        7
Type          Real     Real     Real     Real     Real     Real     Real     Real     Real     Real     Real 
upbo       Infinite Infinite Infinite Infinite Infinite Infinite Infinite Infinite Infinite Infinite Infinite
lowbo            0        0        0        0        0        0        0        0        0        0        0 

Value of objective function: 3

Actual values of the variables:
x10                  0
x11                  0
x1                   3
x2                   0
x3                   0
x4                   0
x5                   0
x6                   2
x7                   0
x8                   0
x9                   0

Actual values of the constraints:
r_1                  3
r_2                  2
r_3                  5
r_4                  7

Dual values with from - till limits:
r_1                         0   -1e+024   1e+024
r_2                        -1         2        5
r_3                         1         5        6
r_4                         0         3        7
x10                         0   -1e+024   1e+024
x11                         0   -1e+024   1e+024
x1                          0   -1e+024   1e+024
x2                          0   -1e+024   1e+024
x3                          0   -1e+024   1e+024
x4                          0   -1e+024   1e+024
x5                          0   -1e+024   1e+024
x6                          0   -1e+024   1e+024
x7                          0   -1e+024   1e+024
x8                          0   -1e+024   1e+024
x9                          0   -1e+024   1e+024
